7098.0
271, 423, 29, 20, 323, 432, 242, 490, 169, 273, 157, 391, 292, 96, 268, 307, 498, 12, 106, 265, 375, 89, 475, 294, 211, 147, 113, 302, 74, 46, 204, 422, 85, 479, 343, 164, 163, 120, 233, 472, 483, 1, 26, 64, 203, 76